(set-logic QF_NRA)
(set-info :source |Benchmarks generated from hycomp (https://es-static.fbk.eu/tools/hycomp/). BMC instances of non-linear hybrid automata taken from: Alessandro Cimatti, Sergio Mover, Stefano Tonetta, A quantifier-free SMT encoding of non-linear hybrid automata, FMCAD 2012 and Alessandro Cimatti, Sergio Mover, Stefano Tonetta, Quantier-free encoding of invariants for Hybrid Systems, Formal Methods in System Design. This instance solves a BMC problem of depth 1 and uses the quantifier free encoding with equivalences and lemmas encoding. Contacts: Sergio Mover (mover@fbk.eu), Stefano Tonetta (tonettas@fbk.eu), Alessandro Cimatti (cimatti@fbk.eu).|)
(set-info :smt-lib-version 2.0)
(set-info :category "industrial")
(set-info :status unsat)
;; MathSAT API call trace
;; generated on Mon Mar 19 10:42:16 2012
(declare-fun b.x__AT0 () Real)
(declare-fun b.speed_y__AT1 () Real)
(declare-fun b.delta__AT1 () Real)
(declare-fun b.bool_atom__AT0 () Bool)
(declare-fun b.y__AT0 () Real)
(declare-fun b.EVENT.1__AT1 () Bool)
(declare-fun b.EVENT.0__AT1 () Bool)
(declare-fun b.counter.0__AT0 () Bool)
(declare-fun b.delta__AT0 () Real)
(declare-fun b.counter.1__AT0 () Bool)
(declare-fun b.y__AT1 () Real)
(declare-fun b.EVENT.0__AT0 () Bool)
(declare-fun b.event_is_timed__AT0 () Bool)
(declare-fun b.speed_y__AT0 () Real)
(declare-fun b.speed_x__AT1 () Real)
(declare-fun b.EVENT.1__AT0 () Bool)
(declare-fun b.counter.3__AT0 () Bool)
(declare-fun b.time__AT1 () Real)
(declare-fun b.x__AT1 () Real)
(declare-fun b.event_is_timed__AT1 () Bool)
(declare-fun b.counter.0__AT1 () Bool)
(declare-fun b.speed_loss__AT0 () Real)
(declare-fun b.counter.1__AT1 () Bool)
(declare-fun b.speed_x__AT0 () Real)
(declare-fun b.counter.2__AT1 () Bool)
(declare-fun b.time__AT0 () Real)
(declare-fun b.counter.2__AT0 () Bool)
(declare-fun b.counter.3__AT1 () Bool)
(declare-fun b.bool_atom__AT1 () Bool)
(assert (let ((.def_589 (* (- 49.0) b.delta__AT1)))
(let ((.def_590 (* 5.0 b.speed_y__AT1)))
(let ((.def_592 (+ .def_590 .def_589)))
(let ((.def_605 (<= 0.0 .def_592)))
(let ((.def_606 (not .def_605)))
(let ((.def_603 (<= 0.0 b.speed_y__AT1)))
(let ((.def_620 (or .def_603 .def_606)))
(let ((.def_595 (<= b.speed_y__AT1 0.0 )))
(let ((.def_596 (not .def_595)))
(let ((.def_593 (<= .def_592 0.0 )))
(let ((.def_619 (or .def_593 .def_596)))
(let ((.def_621 (and .def_619 .def_620)))
(let ((.def_475 (* b.y__AT1 b.speed_y__AT1)))
(let ((.def_516 (* 2.0 .def_475)))
(let ((.def_517 (+ b.speed_x__AT1 .def_516)))
(let ((.def_530 (<= .def_517 0.0 )))
(let ((.def_616 (and .def_530 .def_605)))
(let ((.def_518 (<= 0.0 .def_517)))
(let ((.def_615 (and .def_518 .def_593)))
(let ((.def_617 (or .def_615 .def_616)))
(let ((.def_464 (* (- (/ 49 10)) b.speed_y__AT1)))
(let ((.def_493 (* 3.0 .def_464)))
(let ((.def_549 (* 2.0 .def_493)))
(let ((.def_550 (* b.delta__AT1 .def_549)))
(let ((.def_551 (* (- 50.0) .def_550)))
(let ((.def_459 (* b.delta__AT1 b.delta__AT1)))
(let ((.def_548 (* (- 7203.0) .def_459)))
(let ((.def_552 (+ .def_548 .def_551)))
(let ((.def_341 (* b.speed_y__AT1 b.speed_y__AT1)))
(let ((.def_553 (* (- 50.0) .def_341)))
(let ((.def_557 (+ .def_553 .def_552)))
(let ((.def_555 (* 490.0 b.y__AT1)))
(let ((.def_558 (+ .def_555 .def_557)))
(let ((.def_575 (<= 0.0 .def_558)))
(let ((.def_576 (not .def_575)))
(let ((.def_561 (* (- 5.0) .def_341)))
(let ((.def_562 (* 49.0 b.y__AT1)))
(let ((.def_564 (+ .def_562 .def_561)))
(let ((.def_573 (<= 0.0 .def_564)))
(let ((.def_610 (or .def_573 .def_576)))
(let ((.def_565 (<= .def_564 0.0 )))
(let ((.def_566 (not .def_565)))
(let ((.def_559 (<= .def_558 0.0 )))
(let ((.def_609 (or .def_559 .def_566)))
(let ((.def_611 (and .def_609 .def_610)))
(let ((.def_604 (not .def_603)))
(let ((.def_607 (or .def_604 .def_606)))
(let ((.def_608 (not .def_607)))
(let ((.def_612 (or .def_608 .def_611)))
(let ((.def_560 (not .def_559)))
(let ((.def_600 (or .def_560 .def_565)))
(let ((.def_574 (not .def_573)))
(let ((.def_599 (or .def_574 .def_575)))
(let ((.def_601 (and .def_599 .def_600)))
(let ((.def_594 (not .def_593)))
(let ((.def_597 (or .def_594 .def_596)))
(let ((.def_598 (not .def_597)))
(let ((.def_602 (or .def_598 .def_601)))
(let ((.def_613 (and .def_602 .def_612)))
(let ((.def_586 (and .def_530 .def_575)))
(let ((.def_585 (and .def_518 .def_559)))
(let ((.def_587 (or .def_585 .def_586)))
(let ((.def_471 (* (- (/ 49 10)) b.y__AT1)))
(let ((.def_501 (* 2.0 .def_471)))
(let ((.def_502 (* b.delta__AT1 .def_501)))
(let ((.def_503 (* 50.0 .def_502)))
(let ((.def_497 (* 2.0 .def_341)))
(let ((.def_498 (* b.delta__AT1 .def_497)))
(let ((.def_499 (* 25.0 .def_498)))
(let ((.def_509 (+ .def_499 .def_503)))
(let ((.def_494 (* .def_459 .def_493)))
(let ((.def_495 (* 50.0 .def_494)))
(let ((.def_510 (+ .def_495 .def_509)))
(let ((.def_505 (* 50.0 .def_475)))
(let ((.def_511 (+ .def_505 .def_510)))
(let ((.def_460 (* b.delta__AT1 .def_459)))
(let ((.def_492 (* 2401.0 .def_460)))
(let ((.def_512 (+ .def_492 .def_511)))
(let ((.def_507 (* 25.0 b.speed_x__AT1)))
(let ((.def_513 (+ .def_507 .def_512)))
(let ((.def_532 (<= .def_513 0.0 )))
(let ((.def_533 (not .def_532)))
(let ((.def_580 (or .def_530 .def_533)))
(let ((.def_519 (not .def_518)))
(let ((.def_514 (<= 0.0 .def_513)))
(let ((.def_579 (or .def_514 .def_519)))
(let ((.def_581 (and .def_579 .def_580)))
(let ((.def_577 (or .def_574 .def_576)))
(let ((.def_578 (not .def_577)))
(let ((.def_582 (or .def_578 .def_581)))
(let ((.def_515 (not .def_514)))
(let ((.def_570 (or .def_515 .def_518)))
(let ((.def_531 (not .def_530)))
(let ((.def_569 (or .def_531 .def_532)))
(let ((.def_571 (and .def_569 .def_570)))
(let ((.def_567 (or .def_560 .def_566)))
(let ((.def_568 (not .def_567)))
(let ((.def_572 (or .def_568 .def_571)))
(let ((.def_583 (and .def_572 .def_582)))
(let ((.def_545 (and .def_530 .def_532)))
(let ((.def_544 (and .def_514 .def_518)))
(let ((.def_546 (or .def_544 .def_545)))
(let ((.def_476 (* b.delta__AT1 .def_475)))
(let ((.def_477 (* 200.0 .def_476)))
(let ((.def_472 (* .def_459 .def_471)))
(let ((.def_473 (* 200.0 .def_472)))
(let ((.def_483 (+ .def_473 .def_477)))
(let ((.def_468 (* .def_341 .def_459)))
(let ((.def_469 (* 100.0 .def_468)))
(let ((.def_484 (+ .def_469 .def_483)))
(let ((.def_465 (* .def_460 .def_464)))
(let ((.def_466 (* 200.0 .def_465)))
(let ((.def_485 (+ .def_466 .def_484)))
(let ((.def_461 (* b.delta__AT1 .def_460)))
(let ((.def_462 (* 2401.0 .def_461)))
(let ((.def_486 (+ .def_462 .def_485)))
(let ((.def_457 (* b.speed_x__AT1 b.delta__AT1)))
(let ((.def_458 (* 100.0 .def_457)))
(let ((.def_487 (+ .def_458 .def_486)))
(let ((.def_445 (* b.y__AT1 b.y__AT1)))
(let ((.def_479 (* 100.0 .def_445)))
(let ((.def_488 (+ .def_479 .def_487)))
(let ((.def_481 (* 100.0 b.x__AT1)))
(let ((.def_489 (+ .def_481 .def_488)))
(let ((.def_524 (<= .def_489 0.0 )))
(let ((.def_538 (not .def_524)))
(let ((.def_446 (+ b.x__AT1 .def_445)))
(let ((.def_522 (<= .def_446 0.0 )))
(let ((.def_539 (or .def_522 .def_538)))
(let ((.def_447 (<= 0.0 .def_446)))
(let ((.def_536 (not .def_447)))
(let ((.def_490 (<= 0.0 .def_489)))
(let ((.def_537 (or .def_490 .def_536)))
(let ((.def_540 (and .def_537 .def_539)))
(let ((.def_534 (or .def_531 .def_533)))
(let ((.def_535 (not .def_534)))
(let ((.def_541 (or .def_535 .def_540)))
(let ((.def_526 (not .def_490)))
(let ((.def_527 (or .def_447 .def_526)))
(let ((.def_523 (not .def_522)))
(let ((.def_525 (or .def_523 .def_524)))
(let ((.def_528 (and .def_525 .def_527)))
(let ((.def_520 (or .def_515 .def_519)))
(let ((.def_521 (not .def_520)))
(let ((.def_529 (or .def_521 .def_528)))
(let ((.def_542 (and .def_529 .def_541)))
(let ((.def_491 (and .def_447 .def_490)))
(let ((.def_543 (and .def_491 .def_542)))
(let ((.def_547 (and .def_543 .def_546)))
(let ((.def_584 (and .def_547 .def_583)))
(let ((.def_588 (and .def_584 .def_587)))
(let ((.def_614 (and .def_588 .def_613)))
(let ((.def_618 (and .def_614 .def_617)))
(let ((.def_622 (and .def_618 .def_621)))
(let ((.def_71 (<= b.speed_loss__AT0 (/ 1 2))))
(let ((.def_68 (<= (/ 1 10) b.speed_loss__AT0)))
(let ((.def_72 (and .def_68 .def_71)))
(let ((.def_623 (and .def_72 .def_622)))
(let ((.def_41 (not b.counter.0__AT0)))
(let ((.def_39 (not b.counter.1__AT0)))
(let ((.def_42 (and .def_39 .def_41)))
(let ((.def_452 (or .def_42 b.counter.3__AT0)))
(let ((.def_47 (not b.counter.3__AT0)))
(let ((.def_44 (not b.counter.2__AT0)))
(let ((.def_45 (and .def_42 .def_44)))
(let ((.def_451 (or .def_45 .def_47)))
(let ((.def_453 (and .def_451 .def_452)))
(let ((.def_448 (and .def_72 .def_447)))
(let ((.def_442 (not b.EVENT.0__AT1)))
(let ((.def_440 (not b.EVENT.1__AT1)))
(let ((.def_443 (or .def_440 .def_442)))
(let ((.def_6 (not b.counter.0__AT1)))
(let ((.def_4 (not b.counter.1__AT1)))
(let ((.def_433 (or .def_4 .def_6)))
(let ((.def_437 (or b.counter.3__AT1 .def_433)))
(let ((.def_434 (or b.counter.2__AT1 .def_433)))
(let ((.def_9 (not b.counter.2__AT1)))
(let ((.def_432 (or .def_6 .def_9)))
(let ((.def_435 (and .def_432 .def_434)))
(let ((.def_12 (not b.counter.3__AT1)))
(let ((.def_436 (or .def_12 .def_435)))
(let ((.def_438 (and .def_436 .def_437)))
(let ((.def_444 (and .def_438 .def_443)))
(let ((.def_449 (and .def_444 .def_448)))
(let ((.def_427 (<= 0.0 b.delta__AT0)))
(let ((.def_60 (not b.EVENT.0__AT0)))
(let ((.def_58 (not b.EVENT.1__AT0)))
(let ((.def_264 (and .def_58 .def_60)))
(let ((.def_266 (not .def_264)))
(let ((.def_428 (or .def_266 .def_427)))
(let ((.def_429 (or b.EVENT.1__AT0 .def_428)))
(let ((.def_306 (= b.bool_atom__AT0 b.bool_atom__AT1)))
(let ((.def_301 (= b.counter.0__AT1 b.counter.0__AT0)))
(let ((.def_299 (= b.counter.1__AT1 b.counter.1__AT0)))
(let ((.def_297 (= b.counter.2__AT1 b.counter.2__AT0)))
(let ((.def_296 (= b.counter.3__AT1 b.counter.3__AT0)))
(let ((.def_298 (and .def_296 .def_297)))
(let ((.def_300 (and .def_298 .def_299)))
(let ((.def_302 (and .def_300 .def_301)))
(let ((.def_423 (and .def_302 .def_306)))
(let ((.def_424 (or .def_266 .def_423)))
(let ((.def_425 (or b.EVENT.1__AT0 .def_424)))
(let ((.def_405 (* b.speed_y__AT0 b.delta__AT0)))
(let ((.def_406 (* 10.0 .def_405)))
(let ((.def_410 (* (- 10.0) b.y__AT1)))
(let ((.def_414 (+ .def_410 .def_406)))
(let ((.def_81 (* b.delta__AT0 b.delta__AT0)))
(let ((.def_407 (* (- 49.0) .def_81)))
(let ((.def_415 (+ .def_407 .def_414)))
(let ((.def_412 (* 10.0 b.y__AT0)))
(let ((.def_416 (+ .def_412 .def_415)))
(let ((.def_417 (= .def_416 0.0 )))
(let ((.def_400 (* (- 5.0) b.speed_y__AT1)))
(let ((.def_228 (* (- 49.0) b.delta__AT0)))
(let ((.def_401 (+ .def_228 .def_400)))
(let ((.def_229 (* 5.0 b.speed_y__AT0)))
(let ((.def_402 (+ .def_229 .def_401)))
(let ((.def_403 (= .def_402 0.0 )))
(let ((.def_396 (* (- 1.0) b.x__AT1)))
(let ((.def_78 (* b.speed_x__AT0 b.delta__AT0)))
(let ((.def_397 (+ .def_78 .def_396)))
(let ((.def_398 (+ b.x__AT0 .def_397)))
(let ((.def_399 (= .def_398 0.0 )))
(let ((.def_404 (and .def_399 .def_403)))
(let ((.def_418 (and .def_404 .def_417)))
(let ((.def_291 (= b.speed_x__AT0 b.speed_x__AT1)))
(let ((.def_419 (and .def_291 .def_418)))
(let ((.def_420 (or .def_266 .def_419)))
(let ((.def_288 (= b.y__AT0 b.y__AT1)))
(let ((.def_285 (= b.x__AT0 b.x__AT1)))
(let ((.def_390 (and .def_285 .def_288)))
(let ((.def_391 (and .def_291 .def_390)))
(let ((.def_294 (= b.speed_y__AT0 b.speed_y__AT1)))
(let ((.def_392 (and .def_294 .def_391)))
(let ((.def_387 (= b.delta__AT0 0.0 )))
(let ((.def_388 (and .def_264 .def_387)))
(let ((.def_389 (not .def_388)))
(let ((.def_393 (or .def_389 .def_392)))
(let ((.def_394 (or b.EVENT.1__AT0 .def_393)))
(let ((.def_379 (and .def_291 .def_294)))
(let ((.def_380 (and .def_302 .def_379)))
(let ((.def_381 (or b.bool_atom__AT0 .def_380)))
(let ((.def_355 (or .def_6 b.counter.0__AT0)))
(let ((.def_354 (or b.counter.0__AT1 .def_41)))
(let ((.def_356 (and .def_354 .def_355)))
(let ((.def_357 (and .def_4 .def_356)))
(let ((.def_358 (or b.counter.1__AT0 .def_357)))
(let ((.def_353 (or b.counter.1__AT1 .def_39)))
(let ((.def_359 (and .def_353 .def_358)))
(let ((.def_370 (and .def_9 .def_359)))
(let ((.def_371 (or b.counter.2__AT0 .def_370)))
(let ((.def_365 (and .def_4 .def_41)))
(let ((.def_366 (or b.counter.1__AT0 .def_365)))
(let ((.def_367 (and .def_353 .def_366)))
(let ((.def_368 (and b.counter.2__AT1 .def_367)))
(let ((.def_369 (or .def_44 .def_368)))
(let ((.def_372 (and .def_369 .def_371)))
(let ((.def_373 (and b.counter.3__AT1 .def_372)))
(let ((.def_374 (or b.counter.3__AT0 .def_373)))
(let ((.def_360 (and b.counter.2__AT1 .def_359)))
(let ((.def_361 (or b.counter.2__AT0 .def_360)))
(let ((.def_349 (or b.counter.1__AT1 b.counter.1__AT0)))
(let ((.def_347 (and .def_4 b.counter.0__AT1)))
(let ((.def_348 (or .def_39 .def_347)))
(let ((.def_350 (and .def_348 .def_349)))
(let ((.def_351 (and .def_9 .def_350)))
(let ((.def_352 (or .def_44 .def_351)))
(let ((.def_362 (and .def_352 .def_361)))
(let ((.def_363 (and .def_12 .def_362)))
(let ((.def_364 (or .def_47 .def_363)))
(let ((.def_375 (and .def_364 .def_374)))
(let ((.def_336 (* b.speed_x__AT0 b.speed_x__AT0)))
(let ((.def_95 (* b.speed_y__AT0 b.speed_y__AT0)))
(let ((.def_337 (+ .def_95 .def_336)))
(let ((.def_322 (* (- 1.0) b.speed_loss__AT0)))
(let ((.def_323 (+ 1.0 .def_322)))
(let ((.def_335 (* .def_323 .def_323)))
(let ((.def_338 (* .def_335 .def_337)))
(let ((.def_339 (* (- 1.0) .def_338)))
(let ((.def_343 (+ .def_339 .def_341)))
(let ((.def_334 (* b.speed_x__AT1 b.speed_x__AT1)))
(let ((.def_344 (+ .def_334 .def_343)))
(let ((.def_345 (= .def_344 0.0 )))
(let ((.def_312 (* 2.0 b.y__AT0)))
(let ((.def_326 (* .def_312 .def_323)))
(let ((.def_327 (* b.speed_y__AT0 .def_326)))
(let ((.def_324 (* b.speed_x__AT0 .def_323)))
(let ((.def_330 (+ .def_324 .def_327)))
(let ((.def_320 (* 2.0 b.y__AT1)))
(let ((.def_321 (* b.speed_y__AT1 .def_320)))
(let ((.def_331 (+ .def_321 .def_330)))
(let ((.def_332 (+ b.speed_x__AT1 .def_331)))
(let ((.def_333 (= .def_332 0.0 )))
(let ((.def_346 (and .def_333 .def_345)))
(let ((.def_376 (and .def_346 .def_375)))
(let ((.def_319 (not b.bool_atom__AT0)))
(let ((.def_377 (or .def_319 .def_376)))
(let ((.def_313 (* b.speed_y__AT0 .def_312)))
(let ((.def_314 (+ b.speed_x__AT0 .def_313)))
(let ((.def_315 (<= 0.0 .def_314)))
(let ((.def_316 (not .def_315)))
(let ((.def_63 (* b.y__AT0 b.y__AT0)))
(let ((.def_64 (+ b.x__AT0 .def_63)))
(let ((.def_311 (= .def_64 0.0 )))
(let ((.def_317 (and .def_311 .def_316)))
(let ((.def_318 (= b.bool_atom__AT0 .def_317)))
(let ((.def_378 (and .def_318 .def_377)))
(let ((.def_382 (and .def_378 .def_381)))
(let ((.def_383 (and .def_285 .def_382)))
(let ((.def_384 (and .def_288 .def_383)))
(let ((.def_385 (or .def_264 .def_384)))
(let ((.def_386 (or b.EVENT.1__AT0 .def_385)))
(let ((.def_395 (and .def_386 .def_394)))
(let ((.def_421 (and .def_395 .def_420)))
(let ((.def_271 (= b.time__AT0 b.time__AT1)))
(let ((.def_286 (and .def_271 .def_285)))
(let ((.def_289 (and .def_286 .def_288)))
(let ((.def_292 (and .def_289 .def_291)))
(let ((.def_295 (and .def_292 .def_294)))
(let ((.def_303 (and .def_295 .def_302)))
(let ((.def_307 (and .def_303 .def_306)))
(let ((.def_308 (or .def_58 .def_307)))
(let ((.def_275 (* (- 1.0) b.time__AT1)))
(let ((.def_278 (+ b.delta__AT0 .def_275)))
(let ((.def_279 (+ b.time__AT0 .def_278)))
(let ((.def_280 (= .def_279 0.0 )))
(let ((.def_281 (or .def_266 .def_280)))
(let ((.def_282 (or b.EVENT.1__AT0 .def_281)))
(let ((.def_272 (or .def_264 .def_271)))
(let ((.def_273 (or b.EVENT.1__AT0 .def_272)))
(let ((.def_283 (and .def_273 .def_282)))
(let ((.def_309 (and .def_283 .def_308)))
(let ((.def_268 (= .def_266 b.event_is_timed__AT1)))
(let ((.def_265 (= b.event_is_timed__AT0 .def_264)))
(let ((.def_269 (and .def_265 .def_268)))
(let ((.def_310 (and .def_269 .def_309)))
(let ((.def_422 (and .def_310 .def_421)))
(let ((.def_426 (and .def_422 .def_425)))
(let ((.def_430 (and .def_426 .def_429)))
(let ((.def_431 (and .def_58 .def_430)))
(let ((.def_450 (and .def_431 .def_449)))
(let ((.def_454 (and .def_450 .def_453)))
(let ((.def_231 (+ .def_229 .def_228)))
(let ((.def_244 (<= 0.0 .def_231)))
(let ((.def_245 (not .def_244)))
(let ((.def_242 (<= 0.0 b.speed_y__AT0)))
(let ((.def_259 (or .def_242 .def_245)))
(let ((.def_234 (<= b.speed_y__AT0 0.0 )))
(let ((.def_235 (not .def_234)))
(let ((.def_232 (<= .def_231 0.0 )))
(let ((.def_258 (or .def_232 .def_235)))
(let ((.def_260 (and .def_258 .def_259)))
(let ((.def_103 (* b.y__AT0 b.speed_y__AT0)))
(let ((.def_147 (* 2.0 .def_103)))
(let ((.def_148 (+ b.speed_x__AT0 .def_147)))
(let ((.def_161 (<= .def_148 0.0 )))
(let ((.def_255 (and .def_161 .def_244)))
(let ((.def_149 (<= 0.0 .def_148)))
(let ((.def_254 (and .def_149 .def_232)))
(let ((.def_256 (or .def_254 .def_255)))
(let ((.def_90 (* (- (/ 49 10)) b.speed_y__AT0)))
(let ((.def_122 (* 3.0 .def_90)))
(let ((.def_182 (* 2.0 .def_122)))
(let ((.def_183 (* b.delta__AT0 .def_182)))
(let ((.def_185 (* (- 50.0) .def_183)))
(let ((.def_187 (* (- 50.0) .def_95)))
(let ((.def_192 (+ .def_187 .def_185)))
(let ((.def_181 (* (- 7203.0) .def_81)))
(let ((.def_193 (+ .def_181 .def_192)))
(let ((.def_190 (* 490.0 b.y__AT0)))
(let ((.def_194 (+ .def_190 .def_193)))
(let ((.def_213 (<= 0.0 .def_194)))
(let ((.def_214 (not .def_213)))
(let ((.def_199 (* (- 5.0) .def_95)))
(let ((.def_200 (* 49.0 b.y__AT0)))
(let ((.def_202 (+ .def_200 .def_199)))
(let ((.def_211 (<= 0.0 .def_202)))
(let ((.def_249 (or .def_211 .def_214)))
(let ((.def_203 (<= .def_202 0.0 )))
(let ((.def_204 (not .def_203)))
(let ((.def_195 (<= .def_194 0.0 )))
(let ((.def_248 (or .def_195 .def_204)))
(let ((.def_250 (and .def_248 .def_249)))
(let ((.def_243 (not .def_242)))
(let ((.def_246 (or .def_243 .def_245)))
(let ((.def_247 (not .def_246)))
(let ((.def_251 (or .def_247 .def_250)))
(let ((.def_196 (not .def_195)))
(let ((.def_239 (or .def_196 .def_203)))
(let ((.def_212 (not .def_211)))
(let ((.def_238 (or .def_212 .def_213)))
(let ((.def_240 (and .def_238 .def_239)))
(let ((.def_233 (not .def_232)))
(let ((.def_236 (or .def_233 .def_235)))
(let ((.def_237 (not .def_236)))
(let ((.def_241 (or .def_237 .def_240)))
(let ((.def_252 (and .def_241 .def_251)))
(let ((.def_224 (and .def_161 .def_213)))
(let ((.def_223 (and .def_149 .def_195)))
(let ((.def_225 (or .def_223 .def_224)))
(let ((.def_99 (* (- (/ 49 10)) b.y__AT0)))
(let ((.def_132 (* 2.0 .def_99)))
(let ((.def_133 (* b.delta__AT0 .def_132)))
(let ((.def_134 (* 50.0 .def_133)))
(let ((.def_127 (* 2.0 .def_95)))
(let ((.def_128 (* b.delta__AT0 .def_127)))
(let ((.def_130 (* 25.0 .def_128)))
(let ((.def_140 (+ .def_130 .def_134)))
(let ((.def_123 (* .def_81 .def_122)))
(let ((.def_125 (* 50.0 .def_123)))
(let ((.def_141 (+ .def_125 .def_140)))
(let ((.def_136 (* 50.0 .def_103)))
(let ((.def_142 (+ .def_136 .def_141)))
(let ((.def_82 (* b.delta__AT0 .def_81)))
(let ((.def_120 (* 2401.0 .def_82)))
(let ((.def_143 (+ .def_120 .def_142)))
(let ((.def_138 (* 25.0 b.speed_x__AT0)))
(let ((.def_144 (+ .def_138 .def_143)))
(let ((.def_163 (<= .def_144 0.0 )))
(let ((.def_164 (not .def_163)))
(let ((.def_218 (or .def_161 .def_164)))
(let ((.def_150 (not .def_149)))
(let ((.def_145 (<= 0.0 .def_144)))
(let ((.def_217 (or .def_145 .def_150)))
(let ((.def_219 (and .def_217 .def_218)))
(let ((.def_215 (or .def_212 .def_214)))
(let ((.def_216 (not .def_215)))
(let ((.def_220 (or .def_216 .def_219)))
(let ((.def_146 (not .def_145)))
(let ((.def_208 (or .def_146 .def_149)))
(let ((.def_162 (not .def_161)))
(let ((.def_207 (or .def_162 .def_163)))
(let ((.def_209 (and .def_207 .def_208)))
(let ((.def_205 (or .def_196 .def_204)))
(let ((.def_206 (not .def_205)))
(let ((.def_210 (or .def_206 .def_209)))
(let ((.def_221 (and .def_210 .def_220)))
(let ((.def_176 (and .def_161 .def_163)))
(let ((.def_175 (and .def_145 .def_149)))
(let ((.def_177 (or .def_175 .def_176)))
(let ((.def_104 (* b.delta__AT0 .def_103)))
(let ((.def_105 (* 200.0 .def_104)))
(let ((.def_100 (* .def_81 .def_99)))
(let ((.def_101 (* 200.0 .def_100)))
(let ((.def_111 (+ .def_101 .def_105)))
(let ((.def_96 (* .def_81 .def_95)))
(let ((.def_97 (* 100.0 .def_96)))
(let ((.def_112 (+ .def_97 .def_111)))
(let ((.def_91 (* .def_82 .def_90)))
(let ((.def_93 (* 200.0 .def_91)))
(let ((.def_113 (+ .def_93 .def_112)))
(let ((.def_83 (* b.delta__AT0 .def_82)))
(let ((.def_85 (* 2401.0 .def_83)))
(let ((.def_114 (+ .def_85 .def_113)))
(let ((.def_80 (* 100.0 .def_78)))
(let ((.def_115 (+ .def_80 .def_114)))
(let ((.def_107 (* 100.0 .def_63)))
(let ((.def_116 (+ .def_107 .def_115)))
(let ((.def_109 (* 100.0 b.x__AT0)))
(let ((.def_117 (+ .def_109 .def_116)))
(let ((.def_155 (<= .def_117 0.0 )))
(let ((.def_169 (not .def_155)))
(let ((.def_153 (<= .def_64 0.0 )))
(let ((.def_170 (or .def_153 .def_169)))
(let ((.def_65 (<= 0.0 .def_64)))
(let ((.def_167 (not .def_65)))
(let ((.def_118 (<= 0.0 .def_117)))
(let ((.def_168 (or .def_118 .def_167)))
(let ((.def_171 (and .def_168 .def_170)))
(let ((.def_165 (or .def_162 .def_164)))
(let ((.def_166 (not .def_165)))
(let ((.def_172 (or .def_166 .def_171)))
(let ((.def_157 (not .def_118)))
(let ((.def_158 (or .def_65 .def_157)))
(let ((.def_154 (not .def_153)))
(let ((.def_156 (or .def_154 .def_155)))
(let ((.def_159 (and .def_156 .def_158)))
(let ((.def_151 (or .def_146 .def_150)))
(let ((.def_152 (not .def_151)))
(let ((.def_160 (or .def_152 .def_159)))
(let ((.def_173 (and .def_160 .def_172)))
(let ((.def_119 (and .def_65 .def_118)))
(let ((.def_174 (and .def_119 .def_173)))
(let ((.def_178 (and .def_174 .def_177)))
(let ((.def_222 (and .def_178 .def_221)))
(let ((.def_226 (and .def_222 .def_225)))
(let ((.def_253 (and .def_226 .def_252)))
(let ((.def_257 (and .def_253 .def_256)))
(let ((.def_261 (and .def_257 .def_260)))
(let ((.def_262 (and .def_72 .def_261)))
(let ((.def_73 (and .def_65 .def_72)))
(let ((.def_61 (or .def_58 .def_60)))
(let ((.def_51 (or .def_39 .def_41)))
(let ((.def_55 (or b.counter.3__AT0 .def_51)))
(let ((.def_52 (or b.counter.2__AT0 .def_51)))
(let ((.def_50 (or .def_41 .def_44)))
(let ((.def_53 (and .def_50 .def_52)))
(let ((.def_54 (or .def_47 .def_53)))
(let ((.def_56 (and .def_54 .def_55)))
(let ((.def_62 (and .def_56 .def_61)))
(let ((.def_74 (and .def_62 .def_73)))
(let ((.def_48 (and .def_45 .def_47)))
(let ((.def_36 (= b.speed_y__AT0 1.0 )))
(let ((.def_33 (= b.speed_x__AT0 1.0 )))
(let ((.def_29 (= b.y__AT0 10.0 )))
(let ((.def_25 (= b.x__AT0 (- 9.0) )))
(let ((.def_19 (= b.time__AT0 0.0 )))
(let ((.def_21 (and .def_19 b.event_is_timed__AT0)))
(let ((.def_26 (and .def_21 .def_25)))
(let ((.def_30 (and .def_26 .def_29)))
(let ((.def_34 (and .def_30 .def_33)))
(let ((.def_37 (and .def_34 .def_36)))
(let ((.def_49 (and .def_37 .def_48)))
(let ((.def_75 (and .def_49 .def_74)))
(let ((.def_7 (and .def_4 .def_6)))
(let ((.def_14 (or .def_7 b.counter.3__AT1)))
(let ((.def_10 (and .def_7 .def_9)))
(let ((.def_13 (or .def_10 .def_12)))
(let ((.def_15 (and .def_13 .def_14)))
(let ((.def_16 (not .def_15)))
(let ((.def_76 (and .def_16 .def_75)))
(let ((.def_263 (and .def_76 .def_262)))
(let ((.def_455 (and .def_263 .def_454)))
(let ((.def_624 (and .def_455 .def_623)))
.def_624)))))))))))))))))))))))))))))))))))))))))))))))))))))))))))))))))))))))))))))))))))))))))))))))))))))))))))))))))))))))))))))))))))))))))))))))))))))))))))))))))))))))))))))))))))))))))))))))))))))))))))))))))))))))))))))))))))))))))))))))))))))))))))))))))))))))))))))))))))))))))))))))))))))))))))))))))))))))))))))))))))))))))))))))))))))))))))))))))))))))))))))))))))))))))))))))))))))))))))))))))))))))))))))))))))))))))))))))))))))))))))))))))))))))))))))))))))))))))))))))))))))))))))))))))))))))))))))))))))))))))))))
(check-sat)
(exit)
